results/sol/FMS_07_makespan_heurFalse.sol
# Solution for model JobShopModel
# Objective value = 2932
y[0,0,3] 1
y[0,0,4] 0
y[0,1,1] 1
y[0,1,3] 0
y[0,2,0] 1
y[0,2,1] 0
y[1,0,2] 1
y[1,0,4] 0
y[1,1,1] 1
y[1,1,2] 0
y[1,2,0] 1
y[1,2,2] 0
y[2,0,3] 0
y[2,0,4] 1
y[2,1,2] 0
y[2,1,3] 1
y[2,2,0] 0
y[2,2,1] 1
x[0,0,0,0] 0
x[0,0,0,1] 0
x[0,0,0,2] 0
x[0,0,1,0] 0
x[0,0,1,1] 0
x[0,0,1,2] 0
x[0,0,2,0] 0
x[0,0,2,1] 1
x[0,0,2,2] 0
x[0,1,0,0] 0
x[0,1,0,1] 0
x[0,1,0,2] 1
x[0,1,1,0] 0
x[0,1,1,1] 1
x[0,1,1,2] 0
x[0,1,2,0] 0
x[0,1,2,1] 0
x[0,1,2,2] 1
x[0,2,0,0] 0
x[0,2,0,1] 0
x[0,2,0,2] 0
x[0,2,1,0] 0
x[0,2,1,1] 0
x[0,2,1,2] 1
x[0,2,2,0] 0
x[0,2,2,1] 0
x[0,2,2,2] 0
x[1,0,0,0] 0
x[1,0,0,1] 0
x[1,0,0,2] 0
x[1,0,1,0] 0
x[1,0,1,1] 0
x[1,0,1,2] 0
x[1,0,2,0] 1
x[1,0,2,1] 0
x[1,0,2,2] 0
x[1,1,0,0] 0
x[1,1,0,1] 0
x[1,1,0,2] 0
x[1,1,1,0] 1
x[1,1,1,1] 0
x[1,1,1,2] 0
x[1,1,2,0] 0
x[1,1,2,1] 0
x[1,1,2,2] 1
x[1,2,0,0] 0
x[1,2,0,1] 0
x[1,2,0,2] 0
x[1,2,1,0] 0
x[1,2,1,1] 0
x[1,2,1,2] 0
x[1,2,2,0] 0
x[1,2,2,1] 0
x[1,2,2,2] 0
x[2,0,0,0] 0
x[2,0,0,1] 0
x[2,0,0,2] 0
x[2,0,1,0] 0
x[2,0,1,1] 0
x[2,0,1,2] 0
x[2,0,2,0] 0
x[2,0,2,1] 0
x[2,0,2,2] 0
x[2,1,0,0] 0
x[2,1,0,1] 0
x[2,1,0,2] 0
x[2,1,1,0] 0
x[2,1,1,1] 0
x[2,1,1,2] 0
x[2,1,2,0] 0
x[2,1,2,1] 0
x[2,1,2,2] 0
x[2,2,0,0] 0
x[2,2,0,1] 0
x[2,2,0,2] 0
x[2,2,1,0] 0
x[2,2,1,1] 0
x[2,2,1,2] 0
x[2,2,2,0] 0
x[2,2,2,1] 0
x[2,2,2,2] 0
s[0,0,3] 1142
s[0,0,4] 0
s[0,1,1] 1012
s[0,1,3] 0
s[0,2,0] 895
s[0,2,1] 0
s[1,0,2] 863
s[1,0,4] 0
s[1,1,1] 797
s[1,1,2] 0
s[1,2,0] 480
s[1,2,2] 0
s[2,0,3] 0
s[2,0,4] 612
s[2,1,2] 0
s[2,1,3] 542
s[2,2,0] 0
s[2,2,1] 480
Z_FO 2932
